p cnf 42 139
-1 2 -3 0
1 -2 -3 0
-1 -2 3 0
1 2 3 0
-5 3 0
-5 -4 0
-3 4 5 0
-6 5 0
-6 4 0
-5 -4 6 0
6 -4 -7 0
-6 4 -7 0
6 4 7 0
-6 -4 7 0
-4 10 -11 0
4 -10 -11 0
-4 -10 11 0
4 10 11 0
12 -9 0
12 -11 0
9 11 -12 0
8 -12 -13 0
-8 12 -13 0
8 12 13 0
-8 -12 13 0
7 13 -14 0
-7 -13 -14 0
7 -13 14 0
-7 13 14 0
15 -16 -17 0
-15 16 -17 0
15 16 17 0
-15 -16 17 0
-19 18 0
-19 8 0
-18 -8 19 0
21 4 0
21 -11 0
-4 11 -21 0
-22 20 0
-22 -21 0
-20 21 22 0
19 22 -23 0
-19 -22 -23 0
19 -22 23 0
-19 22 23 0
-24 5 0
-24 16 0
-5 -16 24 0
-23 -24 -25 0
23 24 -25 0
-23 24 25 0
23 -24 25 0
-26 17 0
-26 25 0
-17 -25 26 0
27 3 0
27 2 0
-3 -2 -27 0
28 12 0
28 -27 0
-12 27 -28 0
-29 8 0
-29 10 0
-8 -10 29 0
28 -29 -30 0
-28 29 -30 0
28 29 30 0
-28 -29 30 0
31 -26 0
31 -30 0
26 30 -31 0
32 16 0
32 9 0
-16 -9 -32 0
-18 -32 -33 0
18 32 -33 0
-18 32 33 0
18 -32 33 0
34 11 0
34 15 0
-11 -15 -34 0
35 1 0
35 -4 0
-1 4 -35 0
36 34 0
36 -35 0
-34 35 -36 0
37 -21 0
37 -10 0
21 10 -37 0
38 37 0
38 3 0
-37 -3 -38 0
39 36 0
39 38 0
-36 -38 -39 0
40 -33 0
40 -39 0
33 39 -40 0
-41 31 0
-41 40 0
-31 -40 41 0
42 -14 0
42 41 0
14 -41 -42 0
3 26 6 1 0
7 -34 0
6 20 0
-7 -42 -11 -14 17 34 0
-7 2 21 0
-14 -31 8 -39 -12 0
-22 -23 0
8 -32 -12 -42 0
-35 6 -41 3 19 0
38 -26 29 0
-39 -12 29 1 0
39 -23 -4 -34 18 0
-32 39 0
-27 -20 -4 -17 1 0
-11 -28 -18 15 0
-40 -3 -29 -20 0
24 -19 -8 22 26 39 0
11 -37 0
20 -14 -36 0
15 6 30 -21 0
-31 19 0
41 -17 29 -22 6 0
-13 23 0
-30 -41 0
4 -41 21 0
-17 0
20 -21 12 -27 38 23 0
26 11 39 -8 16 0
-32 36 -8 2 -35 0
26 22 -14 40 -29 0
-37 18 36 21 -34 -5 0
-26 -22 0
42 0
